42
29 26 22 22 15 18 39 0 21 6 17 30 1 3 21 8 41 23 25 8 39 22 19 12 26 7 12 4 13 34 35 27 34 11 17 28 5 18 32 33 28 0 3 40 19 10 35 20 24 1 31 36 15 23 16 13 40 16 24 0 21 2 31 11 4 38 3 17 2 27 36 6 4 37 5 7 38 37 32 14 27 14 33 1 20 20 9 2 25 10 34 6 9 33 13 30 28 41 18 29 
